p cnf 787 1745
-1 2 0
-3 2 0
1 3 -2 0
4 -2 0
-4 2 0
-5 6 0
-7 6 0
5 7 -6 0
3 -6 0
-3 6 0
-8 9 0
-10 9 0
8 10 -9 0
7 -9 0
-7 9 0
-11 12 0
-13 12 0
11 13 -12 0
10 -12 0
-10 12 0
-14 15 0
-16 15 0
14 16 -15 0
13 -15 0
-13 15 0
-14 17 0
-18 17 0
14 18 -17 0
16 -17 0
-16 17 0
-19 20 0
-21 20 0
19 21 -20 0
22 -20 0
-22 20 0
-23 24 0
-25 24 0
23 25 -24 0
21 -24 0
-21 24 0
-26 27 0
-28 27 0
26 28 -27 0
25 -27 0
-25 27 0
-29 30 0
-31 30 0
29 31 -30 0
28 -30 0
-28 30 0
-32 33 0
-34 33 0
32 34 -33 0
31 -33 0
-31 33 0
-26 35 0
-29 35 0
-32 35 0
-36 35 0
26 29 32 36 -35 0
34 -35 0
-34 35 0
-37 38 0
-39 38 0
37 39 -38 0
40 -38 0
-40 38 0
-41 42 0
-43 42 0
41 43 -42 0
39 -42 0
-39 42 0
-44 45 0
-46 45 0
44 46 -45 0
43 -45 0
-43 45 0
-37 47 0
-41 47 0
-44 47 0
-48 47 0
37 41 44 48 -47 0
46 -47 0
-46 47 0
-49 50 0
-51 50 0
49 51 -50 0
52 -50 0
-52 50 0
-53 54 0
-55 54 0
53 55 -54 0
51 -54 0
-51 54 0
-56 57 0
-58 57 0
56 58 -57 0
55 -57 0
-55 57 0
-59 60 0
-61 60 0
59 61 -60 0
58 -60 0
-58 60 0
-62 63 0
-64 63 0
62 64 -63 0
61 -63 0
-61 63 0
-56 65 0
-59 65 0
-62 65 0
-66 65 0
56 59 62 66 -65 0
64 -65 0
-64 65 0
-67 68 0
-69 68 0
67 69 -68 0
70 -68 0
-70 68 0
-71 72 0
-73 72 0
71 73 -72 0
69 -72 0
-69 72 0
-74 75 0
-76 75 0
74 76 -75 0
73 -75 0
-73 75 0
-77 78 0
-79 78 0
77 79 -78 0
76 -78 0
-76 78 0
79 -80 0
80 -79 0
-81 82 0
-83 82 0
81 83 -82 0
84 -82 0
-84 82 0
-85 86 0
-87 86 0
85 87 -86 0
83 -86 0
-83 86 0
-88 89 0
-90 89 0
88 90 -89 0
87 -89 0
-87 89 0
-91 92 0
-93 92 0
91 93 -92 0
90 -92 0
-90 92 0
-94 95 0
-96 95 0
94 96 -95 0
93 -95 0
-93 95 0
-97 98 0
-99 98 0
97 99 -98 0
96 -98 0
-96 98 0
-91 100 0
-94 100 0
-97 100 0
-101 100 0
91 94 97 101 -100 0
99 -100 0
-99 100 0
-102 103 0
-104 103 0
102 104 -103 0
105 -103 0
-105 103 0
-106 107 0
-108 107 0
106 108 -107 0
104 -107 0
-104 107 0
-109 110 0
-111 110 0
109 111 -110 0
108 -110 0
-108 110 0
-112 113 0
-114 113 0
112 114 -113 0
111 -113 0
-111 113 0
-115 116 0
-117 116 0
115 117 -116 0
114 -116 0
-114 116 0
-118 119 0
-120 119 0
118 120 -119 0
117 -119 0
-117 119 0
-115 121 0
-118 121 0
-122 121 0
115 118 122 -121 0
120 -121 0
-120 121 0
-123 124 0
-125 124 0
123 125 -124 0
126 -124 0
-126 124 0
-46 127 0
-128 127 0
46 128 -127 0
125 -127 0
-125 127 0
-129 130 0
-131 130 0
129 131 -130 0
132 -130 0
-132 130 0
-133 134 0
-135 134 0
133 135 -134 0
131 -134 0
-131 134 0
-136 137 0
-138 137 0
136 138 -137 0
135 -137 0
-135 137 0
-139 140 0
-141 140 0
139 141 -140 0
138 -140 0
-138 140 0
-142 143 0
-144 143 0
142 144 -143 0
141 -143 0
-141 143 0
-145 146 0
-147 146 0
145 147 -146 0
144 -146 0
-144 146 0
-142 148 0
-145 148 0
-149 148 0
142 145 149 -148 0
147 -148 0
-147 148 0
-150 151 0
-152 151 0
150 152 -151 0
153 -151 0
-153 151 0
-10 154 0
-155 154 0
10 155 -154 0
152 -154 0
-152 154 0
-156 157 0
-158 157 0
156 158 -157 0
159 -157 0
-159 157 0
-160 161 0
-162 161 0
160 162 -161 0
158 -161 0
-158 161 0
162 -163 0
163 -162 0
-164 165 0
-166 165 0
164 166 -165 0
167 -165 0
-167 165 0
-168 169 0
-170 169 0
168 170 -169 0
166 -169 0
-166 169 0
-171 172 0
-173 172 0
171 173 -172 0
170 -172 0
-170 172 0
-174 175 0
-176 175 0
174 176 -175 0
173 -175 0
-173 175 0
-177 178 0
-179 178 0
177 179 -178 0
176 -178 0
-176 178 0
-180 181 0
-182 181 0
180 182 -181 0
179 -181 0
-179 181 0
-174 183 0
-177 183 0
-180 183 0
-184 183 0
174 177 180 184 -183 0
182 -183 0
-182 183 0
-185 186 0
-187 186 0
185 187 -186 0
188 -186 0
-188 186 0
-189 190 0
-191 190 0
189 191 -190 0
187 -190 0
-187 190 0
-192 193 0
-194 193 0
192 194 -193 0
191 -193 0
-191 193 0
-195 196 0
-197 196 0
195 197 -196 0
194 -196 0
-194 196 0
197 -198 0
198 -197 0
-199 200 0
-201 200 0
199 201 -200 0
202 -200 0
-202 200 0
-203 204 0
-205 204 0
203 205 -204 0
201 -204 0
-201 204 0
-206 207 0
-208 207 0
206 208 -207 0
205 -207 0
-205 207 0
-209 210 0
-211 210 0
209 211 -210 0
208 -210 0
-208 210 0
-209 212 0
-213 212 0
209 213 -212 0
211 -212 0
-211 212 0
-159 214 0
-215 214 0
159 215 -214 0
216 -214 0
-216 214 0
-217 218 0
-219 218 0
217 219 -218 0
220 -218 0
-220 218 0
-221 222 0
-223 222 0
221 223 -222 0
219 -222 0
-219 222 0
-176 224 0
-225 224 0
176 225 -224 0
223 -224 0
-223 224 0
-226 227 0
-228 227 0
226 228 -227 0
229 -227 0
-229 227 0
-120 230 0
-231 230 0
120 231 -230 0
228 -230 0
-228 230 0
-232 233 0
-234 233 0
232 234 -233 0
235 -233 0
-235 233 0
-236 237 0
-238 237 0
236 238 -237 0
234 -237 0
-234 237 0
-239 240 0
-241 240 0
239 241 -240 0
238 -240 0
-238 240 0
-242 243 0
-244 243 0
242 244 -243 0
241 -243 0
-241 243 0
-188 245 0
-246 245 0
188 246 -245 0
244 -245 0
-244 245 0
-247 248 0
-249 248 0
247 249 -248 0
250 -248 0
-250 248 0
-251 252 0
-253 252 0
251 253 -252 0
249 -252 0
-249 252 0
-158 254 0
-255 254 0
158 255 -254 0
253 -254 0
-253 254 0
256 257 0
258 257 0
-256 -258 -257 0
-1 257 -259 0
1 -257 -259 0
259 -257 -1 0
1 257 259 0
-259 0
260 261 0
262 261 0
-260 -262 -261 0
-5 261 -263 0
5 -261 -263 0
263 -261 -5 0
5 261 263 0
-263 0
264 265 0
266 265 0
-264 -266 -265 0
-8 265 -267 0
8 -265 -267 0
267 -265 -8 0
8 265 267 0
-267 0
268 269 0
270 269 0
-268 -270 -269 0
-11 269 -271 0
11 -269 -271 0
271 -269 -11 0
11 269 271 0
-271 0
272 273 0
274 273 0
-272 -274 -273 0
-14 273 -275 0
14 -273 -275 0
275 -273 -14 0
14 273 275 0
-275 0
276 277 0
278 277 0
-276 -278 -277 0
-18 277 -279 0
18 -277 -279 0
279 -277 -18 0
18 277 279 0
-279 0
280 281 0
282 281 0
-280 -282 -281 0
-19 281 -283 0
19 -281 -283 0
283 -281 -19 0
19 281 283 0
-283 0
284 285 0
286 285 0
-284 -286 -285 0
-23 285 -287 0
23 -285 -287 0
287 -285 -23 0
23 285 287 0
-287 0
288 289 0
290 289 0
-288 -290 -289 0
-26 289 -291 0
26 -289 -291 0
291 -289 -26 0
26 289 291 0
-291 0
292 293 0
294 293 0
-292 -294 -293 0
-29 293 -295 0
29 -293 -295 0
295 -293 -29 0
29 293 295 0
-295 0
296 297 0
298 297 0
-296 -298 -297 0
-32 297 -299 0
32 -297 -299 0
299 -297 -32 0
32 297 299 0
-299 0
300 301 0
302 301 0
-300 -302 -301 0
-36 301 -303 0
36 -301 -303 0
303 -301 -36 0
36 301 303 0
-303 0
304 305 0
306 305 0
-304 -306 -305 0
-37 305 -307 0
37 -305 -307 0
307 -305 -37 0
37 305 307 0
-307 0
308 309 0
310 309 0
-308 -310 -309 0
-41 309 -311 0
41 -309 -311 0
311 -309 -41 0
41 309 311 0
-311 0
312 313 0
314 313 0
-312 -314 -313 0
-44 313 -315 0
44 -313 -315 0
315 -313 -44 0
44 313 315 0
-315 0
316 317 0
318 317 0
-316 -318 -317 0
-48 317 -319 0
48 -317 -319 0
319 -317 -48 0
48 317 319 0
-319 0
320 321 0
322 321 0
-320 -322 -321 0
-49 321 -323 0
49 -321 -323 0
323 -321 -49 0
49 321 323 0
-323 0
324 325 0
326 325 0
-324 -326 -325 0
-53 325 -327 0
53 -325 -327 0
327 -325 -53 0
53 325 327 0
-327 0
328 329 0
330 329 0
-328 -330 -329 0
-56 329 -331 0
56 -329 -331 0
331 -329 -56 0
56 329 331 0
-331 0
332 333 0
334 333 0
-332 -334 -333 0
-59 333 -335 0
59 -333 -335 0
335 -333 -59 0
59 333 335 0
-335 0
336 337 0
338 337 0
-336 -338 -337 0
-62 337 -339 0
62 -337 -339 0
339 -337 -62 0
62 337 339 0
-339 0
340 341 0
342 341 0
-340 -342 -341 0
-66 341 -343 0
66 -341 -343 0
343 -341 -66 0
66 341 343 0
-343 0
344 345 0
346 345 0
-344 -346 -345 0
-67 345 -347 0
67 -345 -347 0
347 -345 -67 0
67 345 347 0
-347 0
348 349 0
350 349 0
-348 -350 -349 0
-71 349 -351 0
71 -349 -351 0
351 -349 -71 0
71 349 351 0
-351 0
352 353 0
354 353 0
-352 -354 -353 0
-74 353 -355 0
74 -353 -355 0
355 -353 -74 0
74 353 355 0
-355 0
356 357 0
358 357 0
-356 -358 -357 0
-77 357 -359 0
77 -357 -359 0
359 -357 -77 0
77 357 359 0
-359 0
360 361 0
362 361 0
-360 -362 -361 0
-80 361 -363 0
80 -361 -363 0
363 -361 -80 0
80 361 363 0
-363 0
364 365 0
366 365 0
-364 -366 -365 0
-81 365 -367 0
81 -365 -367 0
367 -365 -81 0
81 365 367 0
-367 0
368 369 0
370 369 0
-368 -370 -369 0
-85 369 -371 0
85 -369 -371 0
371 -369 -85 0
85 369 371 0
-371 0
372 373 0
374 373 0
-372 -374 -373 0
-88 373 -375 0
88 -373 -375 0
375 -373 -88 0
88 373 375 0
-375 0
376 377 0
378 377 0
-376 -378 -377 0
-91 377 -379 0
91 -377 -379 0
379 -377 -91 0
91 377 379 0
-379 0
380 381 0
382 381 0
-380 -382 -381 0
-94 381 -383 0
94 -381 -383 0
383 -381 -94 0
94 381 383 0
-383 0
384 385 0
386 385 0
-384 -386 -385 0
-97 385 -387 0
97 -385 -387 0
387 -385 -97 0
97 385 387 0
-387 0
388 389 0
390 389 0
-388 -390 -389 0
-101 389 -391 0
101 -389 -391 0
391 -389 -101 0
101 389 391 0
-391 0
392 393 0
394 393 0
-392 -394 -393 0
-102 393 -395 0
102 -393 -395 0
395 -393 -102 0
102 393 395 0
-395 0
396 397 0
398 397 0
-396 -398 -397 0
-106 397 -399 0
106 -397 -399 0
399 -397 -106 0
106 397 399 0
-399 0
400 401 0
402 401 0
-400 -402 -401 0
-109 401 -403 0
109 -401 -403 0
403 -401 -109 0
109 401 403 0
-403 0
404 405 0
406 405 0
-404 -406 -405 0
-112 405 -407 0
112 -405 -407 0
407 -405 -112 0
112 405 407 0
-407 0
408 409 0
410 409 0
-408 -410 -409 0
-115 409 -411 0
115 -409 -411 0
411 -409 -115 0
115 409 411 0
-411 0
412 413 0
414 413 0
-412 -414 -413 0
-118 413 -415 0
118 -413 -415 0
415 -413 -118 0
118 413 415 0
-415 0
416 417 0
418 417 0
-416 -418 -417 0
-122 417 -419 0
122 -417 -419 0
419 -417 -122 0
122 417 419 0
-419 0
420 421 0
422 421 0
-420 -422 -421 0
-123 421 -423 0
123 -421 -423 0
423 -421 -123 0
123 421 423 0
-423 0
424 425 0
426 425 0
-424 -426 -425 0
-128 425 -427 0
128 -425 -427 0
427 -425 -128 0
128 425 427 0
-427 0
428 429 0
430 429 0
-428 -430 -429 0
-129 429 -431 0
129 -429 -431 0
431 -429 -129 0
129 429 431 0
-431 0
432 433 0
434 433 0
-432 -434 -433 0
-133 433 -435 0
133 -433 -435 0
435 -433 -133 0
133 433 435 0
-435 0
436 437 0
438 437 0
-436 -438 -437 0
-136 437 -439 0
136 -437 -439 0
439 -437 -136 0
136 437 439 0
-439 0
440 441 0
442 441 0
-440 -442 -441 0
-139 441 -443 0
139 -441 -443 0
443 -441 -139 0
139 441 443 0
-443 0
444 445 0
446 445 0
-444 -446 -445 0
-142 445 -447 0
142 -445 -447 0
447 -445 -142 0
142 445 447 0
-447 0
448 449 0
450 449 0
-448 -450 -449 0
-145 449 -451 0
145 -449 -451 0
451 -449 -145 0
145 449 451 0
-451 0
452 453 0
454 453 0
-452 -454 -453 0
-149 453 -455 0
149 -453 -455 0
455 -453 -149 0
149 453 455 0
-455 0
456 457 0
458 457 0
-456 -458 -457 0
-150 457 -459 0
150 -457 -459 0
459 -457 -150 0
150 457 459 0
-459 0
460 461 0
462 461 0
-460 -462 -461 0
-155 461 -463 0
155 -461 -463 0
463 -461 -155 0
155 461 463 0
-463 0
464 465 0
466 465 0
-464 -466 -465 0
-156 465 -467 0
156 -465 -467 0
467 -465 -156 0
156 465 467 0
-467 0
468 469 0
470 469 0
-468 -470 -469 0
-160 469 -471 0
160 -469 -471 0
471 -469 -160 0
160 469 471 0
-471 0
472 473 0
474 473 0
-472 -474 -473 0
-163 473 -475 0
163 -473 -475 0
475 -473 -163 0
163 473 475 0
-475 0
476 477 0
478 477 0
-476 -478 -477 0
-164 477 -479 0
164 -477 -479 0
479 -477 -164 0
164 477 479 0
-479 0
480 481 0
482 481 0
-480 -482 -481 0
-168 481 -483 0
168 -481 -483 0
483 -481 -168 0
168 481 483 0
-483 0
484 485 0
486 485 0
-484 -486 -485 0
-171 485 -487 0
171 -485 -487 0
487 -485 -171 0
171 485 487 0
-487 0
488 489 0
490 489 0
-488 -490 -489 0
-174 489 -491 0
174 -489 -491 0
491 -489 -174 0
174 489 491 0
-491 0
492 493 0
494 493 0
-492 -494 -493 0
-177 493 -495 0
177 -493 -495 0
495 -493 -177 0
177 493 495 0
-495 0
496 497 0
498 497 0
-496 -498 -497 0
-180 497 -499 0
180 -497 -499 0
499 -497 -180 0
180 497 499 0
-499 0
500 501 0
502 501 0
-500 -502 -501 0
-184 501 -503 0
184 -501 -503 0
503 -501 -184 0
184 501 503 0
-503 0
504 505 0
506 505 0
-504 -506 -505 0
-185 505 -507 0
185 -505 -507 0
507 -505 -185 0
185 505 507 0
-507 0
508 509 0
510 509 0
-508 -510 -509 0
-189 509 -511 0
189 -509 -511 0
511 -509 -189 0
189 509 511 0
-511 0
512 513 0
514 513 0
-512 -514 -513 0
-192 513 -515 0
192 -513 -515 0
515 -513 -192 0
192 513 515 0
-515 0
516 517 0
518 517 0
-516 -518 -517 0
-195 517 -519 0
195 -517 -519 0
519 -517 -195 0
195 517 519 0
-519 0
520 521 0
522 521 0
-520 -522 -521 0
-198 521 -523 0
198 -521 -523 0
523 -521 -198 0
198 521 523 0
-523 0
524 525 0
526 525 0
-524 -526 -525 0
-199 525 -527 0
199 -525 -527 0
527 -525 -199 0
199 525 527 0
-527 0
528 529 0
530 529 0
-528 -530 -529 0
-203 529 -531 0
203 -529 -531 0
531 -529 -203 0
203 529 531 0
-531 0
532 533 0
534 533 0
-532 -534 -533 0
-206 533 -535 0
206 -533 -535 0
535 -533 -206 0
206 533 535 0
-535 0
536 537 0
538 537 0
-536 -538 -537 0
-209 537 -539 0
209 -537 -539 0
539 -537 -209 0
209 537 539 0
-539 0
540 541 0
542 541 0
-540 -542 -541 0
-213 541 -543 0
213 -541 -543 0
543 -541 -213 0
213 541 543 0
-543 0
544 545 0
546 545 0
-544 -546 -545 0
-215 545 -547 0
215 -545 -547 0
547 -545 -215 0
215 545 547 0
-547 0
548 549 0
550 549 0
-548 -550 -549 0
-217 549 -551 0
217 -549 -551 0
551 -549 -217 0
217 549 551 0
-551 0
552 553 0
554 553 0
-552 -554 -553 0
-221 553 -555 0
221 -553 -555 0
555 -553 -221 0
221 553 555 0
-555 0
556 557 0
558 557 0
-556 -558 -557 0
-225 557 -559 0
225 -557 -559 0
559 -557 -225 0
225 557 559 0
-559 0
560 561 0
562 561 0
-560 -562 -561 0
-226 561 -563 0
226 -561 -563 0
563 -561 -226 0
226 561 563 0
-563 0
564 565 0
566 565 0
-564 -566 -565 0
-231 565 -567 0
231 -565 -567 0
567 -565 -231 0
231 565 567 0
-567 0
568 569 0
570 569 0
-568 -570 -569 0
-232 569 -571 0
232 -569 -571 0
571 -569 -232 0
232 569 571 0
-571 0
572 573 0
574 573 0
-572 -574 -573 0
-236 573 -575 0
236 -573 -575 0
575 -573 -236 0
236 573 575 0
-575 0
576 577 0
578 577 0
-576 -578 -577 0
-239 577 -579 0
239 -577 -579 0
579 -577 -239 0
239 577 579 0
-579 0
580 581 0
582 581 0
-580 -582 -581 0
-242 581 -583 0
242 -581 -583 0
583 -581 -242 0
242 581 583 0
-583 0
584 585 0
586 585 0
-584 -586 -585 0
-246 585 -587 0
246 -585 -587 0
587 -585 -246 0
246 585 587 0
-587 0
588 589 0
590 589 0
-588 -590 -589 0
-247 589 -591 0
247 -589 -591 0
591 -589 -247 0
247 589 591 0
-591 0
592 593 0
594 593 0
-592 -594 -593 0
-251 593 -595 0
251 -593 -595 0
595 -593 -251 0
251 593 595 0
-595 0
596 597 0
598 597 0
-596 -598 -597 0
-255 597 -599 0
255 -597 -599 0
599 -597 -255 0
255 597 599 0
-599 0
-256 0
-260 0
-264 0
268 0
-272 0
-276 0
-280 0
284 0
-288 0
292 0
296 0
300 0
304 0
308 0
312 0
316 0
-320 0
-324 0
328 0
332 0
-336 0
340 0
344 0
348 0
352 0
-356 0
360 0
-364 0
368 0
-372 0
376 0
-380 0
384 0
388 0
-392 0
396 0
-400 0
-404 0
-408 0
-412 0
416 0
-420 0
424 0
-428 0
432 0
436 0
-440 0
444 0
-448 0
-452 0
-456 0
460 0
-464 0
468 0
-472 0
-476 0
-480 0
-484 0
488 0
492 0
-496 0
500 0
504 0
-508 0
512 0
-516 0
520 0
-524 0
-528 0
532 0
536 0
-540 0
-544 0
-548 0
-552 0
-556 0
-560 0
564 0
-568 0
572 0
576 0
580 0
-584 0
-588 0
-592 0
-596 0
-262 600 0
-601 600 0
262 601 -600 0
258 -600 0
-258 600 0
-266 602 0
602 -603 0
266 603 -602 0
262 -602 0
-262 602 0
-270 604 0
604 -605 0
270 605 -604 0
266 -604 0
-266 604 0
-274 606 0
606 -607 0
274 607 -606 0
270 -606 0
-270 606 0
-278 608 0
608 -609 0
278 609 -608 0
274 -608 0
-274 608 0
-609 610 0
-611 610 0
609 611 -610 0
278 -610 0
-278 610 0
-286 612 0
-613 612 0
286 613 -612 0
282 -612 0
-282 612 0
-290 614 0
614 -615 0
290 615 -614 0
286 -614 0
-286 614 0
-294 616 0
-617 616 0
294 617 -616 0
290 -616 0
-290 616 0
-298 618 0
618 -619 0
298 619 -618 0
294 -618 0
-294 618 0
-302 620 0
-621 620 0
302 621 -620 0
298 -620 0
-298 620 0
-617 622 0
-619 622 0
-621 622 0
-623 622 0
617 619 621 623 -622 0
302 -622 0
-302 622 0
-310 624 0
624 -625 0
310 625 -624 0
306 -624 0
-306 624 0
-314 626 0
626 -627 0
314 627 -626 0
310 -626 0
-310 626 0
-318 628 0
-629 628 0
318 629 -628 0
314 -628 0
-314 628 0
-625 630 0
-627 630 0
-629 630 0
-631 630 0
625 627 629 631 -630 0
318 -630 0
-318 630 0
-326 632 0
-633 632 0
326 633 -632 0
322 -632 0
-322 632 0
-330 634 0
634 -635 0
330 635 -634 0
326 -634 0
-326 634 0
-334 636 0
636 -637 0
334 637 -636 0
330 -636 0
-330 636 0
-338 638 0
638 -639 0
338 639 -638 0
334 -638 0
-334 638 0
-342 640 0
640 -641 0
342 641 -640 0
338 -640 0
-338 640 0
-637 642 0
-639 642 0
-641 642 0
-643 642 0
637 639 641 643 -642 0
342 -642 0
-342 642 0
-350 644 0
-645 644 0
350 645 -644 0
346 -644 0
-346 644 0
-354 646 0
-647 646 0
354 647 -646 0
350 -646 0
-350 646 0
-358 648 0
648 -649 0
358 649 -648 0
354 -648 0
-354 648 0
-362 650 0
650 -651 0
362 651 -650 0
358 -650 0
-358 650 0
362 -652 0
652 -362 0
-370 653 0
-654 653 0
370 654 -653 0
366 -653 0
-366 653 0
-374 655 0
-656 655 0
374 656 -655 0
370 -655 0
-370 655 0
-378 657 0
657 -658 0
378 658 -657 0
374 -657 0
-374 657 0
-382 659 0
-660 659 0
382 660 -659 0
378 -659 0
-378 659 0
-386 661 0
661 -662 0
386 662 -661 0
382 -661 0
-382 661 0
-390 663 0
-664 663 0
390 664 -663 0
386 -663 0
-386 663 0
-660 665 0
-662 665 0
-664 665 0
665 -666 0
660 662 664 666 -665 0
390 -665 0
-390 665 0
-398 667 0
667 -668 0
398 668 -667 0
394 -667 0
-394 667 0
-402 669 0
-670 669 0
402 670 -669 0
398 -669 0
-398 669 0
-406 671 0
671 -672 0
406 672 -671 0
402 -671 0
-402 671 0
-410 673 0
-674 673 0
410 674 -673 0
406 -673 0
-406 673 0
-414 675 0
-676 675 0
414 676 -675 0
410 -675 0
-410 675 0
-418 677 0
-678 677 0
418 678 -677 0
414 -677 0
-414 677 0
-676 679 0
-678 679 0
-680 679 0
676 678 680 -679 0
418 -679 0
-418 679 0
-426 681 0
-682 681 0
426 682 -681 0
422 -681 0
-422 681 0
-318 683 0
683 -684 0
318 684 -683 0
426 -683 0
-426 683 0
-434 685 0
-686 685 0
434 686 -685 0
430 -685 0
-430 685 0
-438 687 0
687 -688 0
438 688 -687 0
434 -687 0
-434 687 0
-442 689 0
-690 689 0
442 690 -689 0
438 -689 0
-438 689 0
-446 691 0
-692 691 0
446 692 -691 0
442 -691 0
-442 691 0
-450 693 0
693 -694 0
450 694 -693 0
446 -693 0
-446 693 0
-454 695 0
-696 695 0
454 696 -695 0
450 -695 0
-450 695 0
-694 697 0
-696 697 0
697 -698 0
694 696 698 -697 0
454 -697 0
-454 697 0
-462 699 0
699 -700 0
462 700 -699 0
458 -699 0
-458 699 0
-270 701 0
-702 701 0
270 702 -701 0
462 -701 0
-462 701 0
-470 703 0
703 -704 0
470 704 -703 0
466 -703 0
-466 703 0
-474 705 0
-706 705 0
474 706 -705 0
470 -705 0
-470 705 0
474 -707 0
707 -474 0
-482 708 0
708 -709 0
482 709 -708 0
478 -708 0
-478 708 0
-486 710 0
710 -711 0
486 711 -710 0
482 -710 0
-482 710 0
-490 712 0
-713 712 0
490 713 -712 0
486 -712 0
-486 712 0
-494 714 0
-715 714 0
494 715 -714 0
490 -714 0
-490 714 0
-498 716 0
-717 716 0
498 717 -716 0
494 -716 0
-494 716 0
-502 718 0
-719 718 0
502 719 -718 0
498 -718 0
-498 718 0
-715 720 0
-717 720 0
-719 720 0
-721 720 0
715 717 719 721 -720 0
502 -720 0
-502 720 0
-510 722 0
-723 722 0
510 723 -722 0
506 -722 0
-506 722 0
-514 724 0
-725 724 0
514 725 -724 0
510 -724 0
-510 724 0
-518 726 0
-727 726 0
518 727 -726 0
514 -726 0
-514 726 0
-522 728 0
-729 728 0
522 729 -728 0
518 -728 0
-518 728 0
522 -730 0
730 -522 0
-530 731 0
-732 731 0
530 732 -731 0
526 -731 0
-526 731 0
-534 733 0
-734 733 0
534 734 -733 0
530 -733 0
-530 733 0
-538 735 0
-736 735 0
538 736 -735 0
534 -735 0
-534 735 0
-542 737 0
-738 737 0
542 738 -737 0
538 -737 0
-538 737 0
-738 739 0
-740 739 0
738 740 -739 0
542 -739 0
-542 739 0
-466 741 0
741 -742 0
466 742 -741 0
546 -741 0
-546 741 0
-554 743 0
-744 743 0
554 744 -743 0
550 -743 0
-550 743 0
-558 745 0
745 -746 0
558 746 -745 0
554 -745 0
-554 745 0
-494 747 0
747 -748 0
494 748 -747 0
558 -747 0
-558 747 0
-566 749 0
-750 749 0
566 750 -749 0
562 -749 0
-562 749 0
-418 751 0
-752 751 0
418 752 -751 0
566 -751 0
-566 751 0
-574 753 0
753 -754 0
574 754 -753 0
570 -753 0
-570 753 0
-578 755 0
-756 755 0
578 756 -755 0
574 -755 0
-574 755 0
-582 757 0
-758 757 0
582 758 -757 0
578 -757 0
-578 757 0
-586 759 0
-760 759 0
586 760 -759 0
582 -759 0
-582 759 0
-506 761 0
-762 761 0
506 762 -761 0
586 -761 0
-586 761 0
-594 763 0
-764 763 0
594 764 -763 0
590 -763 0
-590 763 0
-598 765 0
765 -766 0
598 766 -765 0
594 -765 0
-594 765 0
-470 767 0
-768 767 0
470 768 -767 0
598 -767 0
-598 767 0
-601 0
603 0
605 0
607 0
609 0
-611 0
-613 0
615 0
-617 0
619 0
-621 0
-623 0
625 0
627 0
-629 0
-631 0
-633 0
635 0
637 0
639 0
641 0
-643 0
-645 0
-647 0
649 0
651 0
652 0
-654 0
-656 0
658 0
-660 0
662 0
-664 0
666 0
668 0
-670 0
672 0
-674 0
-676 0
-678 0
-680 0
-682 0
684 0
-686 0
688 0
-690 0
-692 0
694 0
-696 0
698 0
700 0
-702 0
704 0
-706 0
-707 0
709 0
711 0
-713 0
-715 0
-717 0
-719 0
-721 0
-723 0
-725 0
-727 0
-729 0
-730 0
-732 0
-734 0
-736 0
-738 0
-740 0
742 0
-744 0
746 0
748 0
-750 0
-752 0
754 0
-756 0
-758 0
-760 0
-762 0
-764 0
766 0
-768 0
769 0
770 0
771 0
772 0
773 0
774 0
775 0
776 0
777 0
778 0
-779 0
-780 0
-781 0
-782 0
-783 0
-784 0
-785 0
-786 0
-787 0
